19356174439890901335012,14,1,2,01,14,1,2,013,7,1,2,07,2,1,2,05,9,1,2,011,7,1,2,02,3,1,2,015,2,1,2,08,9,1,2,012,1,1,2,09,4,1,2,013,12,1,2,013,8,1,2,09,3,1,2,014,14,1,2,05,3,1,2,013,13,1,2,010,2,1,2,09,13,1,2,06,3,1,2,06,1,1,2,010,4,1,2,02,12,1,2,03,2,1,2,010,12,1,2,06,13,1,2,02,5,1,2,014,14,1,2,07,7,1,2,012,13,1,2,08,2,1,2,05,12,1,2,011,5,1,2,03,3,1,2,013,4,1,2,06,6,1,2,09,1,1,2,010,4,1,2,011,4,1,2,05,6,1,2,03,2,1,2,08,1,1,2,09,6,1,2,05,15,1,2,08,1,1,2,03,8,1,2,08,3,1,2,05,11,1,2,015,13,1,2,010,1,1,2,0